
Gurobi 6.5.2 (win64) logging started 07/24/16 17:29:19


Gurobi 6.5.2 (win64) logging started 07/24/16 17:29:19

Optimize a model with 1734 rows, 268 columns and 3930 nonzeros
Coefficient statistics:
  Matrix range    [1e+00, 4e+02]
  Objective range [2e+00, 4e+02]
  Bounds range    [1e+00, 1e+00]
  RHS range       [1e+00, 2e+03]
Presolve removed 1622 rows and 33 columns
Presolve time: 0.00s
Presolved: 112 rows, 235 columns, 997 nonzeros
Variable types: 0 continuous, 235 integer (235 binary)

Root relaxation: objective 2.201000e+03, 83 iterations, 0.00 seconds

    Nodes    |    Current Node    |     Objective Bounds      |     Work
 Expl Unexpl |  Obj  Depth IntInf | Incumbent    BestBd   Gap | It/Node Time

*    0     0               0    2201.0000000 2201.00000  0.00%     -    0s

Explored 0 nodes (83 simplex iterations) in 0.02 seconds
Thread count was 8 (of 8 available processors)

Optimal solution found (tolerance 1.00e-04)
Best objective 2.201000000000e+03, best bound 2.201000000000e+03, gap 0.0%

Wrote requested result file 'H1\instance13\\Results13SG_Sol2.lp'

